lattice_vector 5.5650000000       0.0000000000       0.0000000000       
lattice_vector 0.0000000000       5.5650000000       0.0000000000       
lattice_vector 0.0000000000       0.0000000000       4.6840000000       
atom_frac  0.0000000000       0.5000000000       0.3260000000       C 
atom_frac  0.5000000000       0.0000000000       0.6740000000       C 
atom_frac  0.0000000000       0.5000000000       0.5953000000       O 
atom_frac  0.5000000000       0.0000000000       0.4047000000       O 
atom_frac  0.1459000000       0.6459000000       0.1766000000       N 
atom_frac  0.3541000000       0.1459000000       0.8234000000       N 
atom_frac  0.8541000000       0.3541000000       0.1766000000       N 
atom_frac  0.6459000000       0.8541000000       0.8234000000       N 
atom_frac  0.2575000000       0.7575000000       0.2827000000       H 
atom_frac  0.2425000000       0.2575000000       0.7173000000       H 
atom_frac  0.7425000000       0.2425000000       0.2827000000       H 
atom_frac  0.7575000000       0.7425000000       0.7173000000       H 
atom_frac  0.1441000000       0.6441000000       0.9620000000       H 
atom_frac  0.3559000000       0.1441000000       0.0380000000       H 
atom_frac  0.8559000000       0.3559000000       0.9620000000       H 
atom_frac  0.6441000000       0.8559000000       0.0380000000       H 
