lattice_vector 2.4560000000       0.0000000000       0.0000000000
lattice_vector -1.2280000000      2.1269583917       0.0000000000
lattice_vector 0.0000000000       0.0000000000       6.6960000000
atom_frac  0.0000000000       0.0000000000       0.2500000000       C
atom_frac  0.0000000000       0.0000000000       0.7500000000       C
atom_frac  0.3333333300       0.6666666670       0.2500000000       C
atom_frac  0.6666666700       0.3333333330       0.7500000000       C
